<number of tasks>
250

<cycle time>
1000

<order strength>
0.597


<task times>
1 649
2 512
3 320
4 540
5 424
6 487
7 483
8 346
9 331
10 345
11 369
12 519
13 598
14 608
15 582
16 350
17 192
18 300
19 383
20 448
21 566
22 477
23 275
24 709
25 437
26 550
27 541
28 390
29 498
30 516
31 467
32 263
33 651
34 469
35 336
36 570
37 442
38 395
39 325
40 294
41 703
42 424
43 619
44 482
45 357
46 562
47 575
48 505
49 477
50 579
51 534
52 274
53 260
54 618
55 425
56 445
57 447
58 637
59 355
60 543
61 485
62 383
63 553
64 331
65 660
66 458
67 596
68 391
69 586
70 326
71 526
72 575
73 448
74 691
75 600
76 533
77 644
78 412
79 657
80 433
81 534
82 543
83 477
84 670
85 708
86 455
87 435
88 672
89 710
90 541
91 417
92 502
93 675
94 497
95 269
96 383
97 331
98 365
99 400
100 595
101 783
102 567
103 585
104 383
105 640
106 592
107 536
108 576
109 626
110 341
111 591
112 358
113 311
114 539
115 461
116 497
117 262
118 425
119 419
120 783
121 353
122 544
123 387
124 335
125 531
126 534
127 357
128 356
129 421
130 529
131 512
132 397
133 520
134 553
135 558
136 405
137 425
138 390
139 427
140 483
141 469
142 735
143 461
144 720
145 531
146 454
147 498
148 384
149 587
150 617
151 568
152 561
153 458
154 546
155 400
156 534
157 474
158 304
159 323
160 134
161 458
162 374
163 486
164 243
165 649
166 471
167 543
168 596
169 387
170 630
171 563
172 537
173 512
174 344
175 519
176 774
177 433
178 655
179 611
180 698
181 604
182 500
183 374
184 390
185 405
186 394
187 531
188 335
189 476
190 680
191 619
192 381
193 485
194 547
195 381
196 292
197 608
198 581
199 480
200 555
201 414
202 408
203 462
204 457
205 580
206 523
207 595
208 453
209 406
210 572
211 494
212 551
213 368
214 481
215 477
216 544
217 358
218 358
219 381
220 567
221 526
222 380
223 368
224 345
225 461
226 492
227 352
228 365
229 568
230 642
231 365
232 478
233 773
234 358
235 475
236 537
237 480
238 482
239 407
240 373
241 377
242 627
243 418
244 646
245 449
246 449
247 556
248 368
249 410
250 649

<precedence relations>
1,30
2,30
3,65
4,65
5,31
6,31
7,31
8,115
9,195
10,177
11,12
11,13
11,14
11,15
11,16
11,17
11,18
12,30
13,65
14,80
15,31
16,31
17,31
18,19
18,20
18,21
18,22
18,23
18,24
18,25
18,26
18,27
18,28
19,30
20,65
21,80
22,80
23,31
24,120
25,120
26,115
27,177
28,29
28,32
28,33
28,34
28,35
28,36
28,101
29,206
30,38
30,39
30,40
30,41
30,42
30,43
30,44
30,45
31,37
31,46
31,47
31,48
31,49
31,50
31,51
31,52
31,56
32,120
33,120
34,115
35,177
36,53
36,63
36,127
36,148
37,198
38,54
38,55
38,59
39,54
39,55
39,56
39,68
40,97
40,151
41,95
41,116
42,80
42,92
43,54
43,55
43,58
43,61
44,57
45,56
45,92
46,55
46,57
46,59
46,61
46,68
47,60
48,92
48,120
49,63
49,67
49,146
50,107
51,176
51,221
51,228
52,54
52,89
52,135
53,54
54,147
55,65
56,80
57,120
58,115
59,177
60,63
60,67
60,68
60,105
60,108
61,62
61,64
61,66
62,206
63,206
64,198
65,69
65,70
65,71
65,72
65,73
65,74
65,75
65,76
65,77
65,78
65,79
65,81
65,82
66,80
67,115
68,83
69,147
70,83
70,89
70,90
70,111
71,83
71,89
71,106
72,120
72,137
73,83
73,102
73,144
73,151
74,90
74,91
75,83
75,91
75,97
75,117
75,127
75,151
76,83
76,142
77,83
77,90
77,97
78,117
78,139
79,228
80,84
80,85
80,86
80,87
80,88
81,92
81,98
81,118
82,83
82,126
82,151
83,147
84,93
85,94
85,96
86,93
87,95
87,117
88,107
89,120
90,115
92,108
92,113
92,116
92,143
93,120
94,120
95,177
96,97
96,98
96,99
96,100
96,101
96,102
96,103
97,147
98,228
99,120
100,115
101,195
102,177
103,104
103,105
103,106
103,107
103,108
103,109
103,110
103,111
103,112
104,228
105,120
106,120
107,115
108,115
109,177
110,177
111,120
112,113
112,114
112,116
112,117
112,118
113,238
114,120
115,119
115,121
115,122
115,123
115,124
115,125
115,126
116,177
117,177
118,127
118,128
119,147
120,129
120,130
120,131
120,132
120,133
120,134
121,148
121,179
122,149
123,177
124,174
125,129
126,195
127,177
128,129
128,135
129,147
130,136
130,139
130,140
131,193
132,138
133,147
134,136
135,137
135,170
136,147
137,177
138,177
139,177
140,141
140,142
140,143
140,144
140,145
140,146
141,147
142,147
143,228
144,177
145,172
146,148
146,149
146,150
146,151
147,152
147,153
147,154
147,155
147,156
147,157
147,158
147,159
147,160
147,161
147,162
147,163
147,164
147,165
147,166
147,167
147,168
147,169
147,170
148,177
149,177
150,177
152,237
153,174
153,179
154,192
155,196
156,194
158,193
160,174
161,171
161,172
162,175
164,196
164,237
165,250
168,172
168,175
170,173
171,198
172,177
173,177
174,177
175,176
175,178
175,179
176,238
177,180
177,181
177,182
177,183
177,184
177,185
177,186
179,189
180,195
181,189
182,187
183,188
184,187
184,205
187,238
188,192
189,190
189,191
190,195
191,194
192,193
192,196
193,198
194,198
195,197
195,199
195,200
195,201
195,202
195,203
195,204
195,205
195,247
197,206
198,207
198,208
198,209
198,210
198,211
198,212
198,213
198,214
198,215
198,216
198,217
198,218
198,219
198,220
199,238
205,221
206,222
206,223
206,224
206,225
206,226
206,227
207,228
210,229
212,229
218,249
220,247
223,249
226,250
228,230
228,231
228,232
228,233
228,234
228,235
228,236
228,237
230,238
231,239
238,240
238,241
238,242
238,243
238,244
238,245
238,246
239,247
240,250
242,249
242,250
245,248

<end>
